% demand
num_movements = 26;
loading_factor = [1000, 1700, 1550, 1600, 1150, 1650, 1400, 1650, 1350, 950, 1250, 1050, 1100, 1250, 1500, 1100, 900, 1400, 1800, 1150, 1650, 1600, 1250, 1350, 1600, 1750];
pickup_time = [0, 0, 0, 0, 0, 2, 2, 2, 2, 2, 4, 4, 6, 7, 7, 8, 9, 9, 9, 9, 9, 11, 12, 12, 12, 13];
delivery_time = [1, 2, 2, 2, 2, 9, 3, 4, 7, 6, 7, 8, 8, 8, 9, 9, 13, 14, 12, 12, 11, 12, 13, 13, 14, 14];

% transporter definition
total_capacity = 7000;
num_decks = 3;
capacity = [3000, 1000, 3000];

% ways out of decks
num_ways_out = 1;
paths_out = array3d(decks, ways_out, decks, [
% ways out of deck d1
2, 3, 0, 

% ways out of deck d2
3, 0, 0, 

% ways out of deck d3
0, 0, 0,	

]);

